p cnf 33 39
-1 25 31 0 
-2 -1 25 31 0 
-3 13 14 15 16 18 26 27 28 29 30 32 0 
-4 5 8 32 0 
-5 4 8 31 0 
-6 7 32 0 
-7 6 32 0 
-8 4 5 31 0 
-9 31 0 
-10 -11 32 0 
-12 -11 31 0 
-10 -11 33 0 
-13 3 14 15 16 18 26 27 28 29 30 31 0 
-14 3 13 15 16 18 26 27 28 29 30 31 0 
-15 3 13 14 16 18 26 27 28 29 30 31 0 
-16 3 13 14 15 18 26 27 28 29 30 31 0 
-3 13 14 15 16 18 26 27 28 29 30 33 0 
-17 33 0 
-18 3 13 14 15 16 26 27 28 29 30 33 0 
-17 32 0 
-18 3 13 14 15 16 26 27 28 29 30 32 0 
-19 24 33 0 
-19 24 32 0 
-6 7 33 0 
-7 6 33 0 
-20 31 0 
-12 -1 25 31 0 
-21 -8 4 5 -22 31 0 
-23 31 0 
-11 33 0 
-11 32 0 
-4 5 8 33 0 
-7 6 -24 19 33 0 
-25 1 -7 6 33 0 
-26 3 13 14 15 16 18 27 28 29 30 31 0 
-27 3 13 14 15 16 18 26 28 29 30 31 0 
-28 3 13 14 15 16 18 26 27 29 30 31 0 
-29 3 13 14 15 16 18 26 27 28 30 31 0 
-30 3 13 14 15 16 18 26 27 28 29 31 0 
